\ Model Simple Maximizer
\ LP format - for model browsing. Use MPS format to capture full model detail.
Maximize
  2 x_1 + 3 x_2
Subject To
 c_1: x_1 + 2 x_2 <= 6
 c_2: 2 x_1 + x_2 <= 8
Bounds
End
